* #variable= 94 #constraint= 8
****************************************
* begin normalizer comments
* category= OPT-SMALLINT
* end normalizer comments
****************************************
min: +1 x1 +2 x2 +4 x3 +8 x4 +16 x5 +32 x6 +64 x7 +128 x8 +1 x9 +2 x10 +4 x11 +8 x12 +16 x13 +32 x14 +64 x15 +128 x16 +1 x17 +2 x18 +4 x19 +8 x20 +16 x21 +32 x22 +64 x23 +128 x24 +1 x25 +2 x26 +4 x27 +8 x28 +16 x29 +32 x30 +64 x31 +128 x32 +1 x33 +2 x34 +4 x35 +8 x36 +16 x37 +32 x38 +64 x39 +128 x40 +1 x41 +2 x42 +4 x43 +8 x44 +16 x45 +32 x46 +64 x47 +128 x48 +1 x49 +2 x50 +4 x51 +8 x52 +16 x53 +32 x54 +64 x55 +128 x56 +1 x57 +2 x58 +4 x59 +8 x60 +16 x61 +32 x62 +64 x63 +128 x64 ;
-1 x49 -2 x50 -4 x51 -8 x52 -16 x53 -32 x54 -64 x55 -128 x56 +1 x57 +2 x58 +4 x59 +8 x60 +16 x61 +32 x62 +64 x63 +128 x64 -48 x65 -71 x66 -5 x67 -77 x68 -43 x70 -23 x71 -3 x72 -6 x73 -47 x74 -17 x75 -56 x76 -17 x77 -67 x78 -70 x79 -67 x80 -93 x81 -99 x82 -5 x83 -9 x84 -86 x85 -46 x86 -96 x87 -61 x88 -86 x89 -75 x90 -55 x91 -41 x92 -3 x93 -1 x94 >= -686 ;
+1 x49 +2 x50 +4 x51 +8 x52 +16 x53 +32 x54 +64 x55 +128 x56 -1 x57 -2 x58 -4 x59 -8 x60 -16 x61 -32 x62 -64 x63 -128 x64 +48 x65 +71 x66 +5 x67 +77 x68 +43 x70 +23 x71 +3 x72 +6 x73 +47 x74 +17 x75 +56 x76 +17 x77 +67 x78 +70 x79 +67 x80 +93 x81 +99 x82 +5 x83 +9 x84 +86 x85 +46 x86 +96 x87 +61 x88 +86 x89 +75 x90 +55 x91 +41 x92 +3 x93 +1 x94 >= 686 ;
-1 x33 -2 x34 -4 x35 -8 x36 -16 x37 -32 x38 -64 x39 -128 x40 +1 x41 +2 x42 +4 x43 +8 x44 +16 x45 +32 x46 +64 x47 +128 x48 -77 x65 -16 x66 -29 x67 -77 x68 -86 x69 -46 x70 -3 x71 -11 x72 -72 x73 -62 x74 -49 x75 -70 x76 -50 x77 -14 x78 -97 x79 -73 x80 -29 x81 -38 x82 -16 x83 -34 x84 -89 x85 -86 x86 -23 x87 -87 x88 -27 x89 -41 x90 -55 x91 -76 x92 -94 x93 -89 x94 >= -808 ;
+1 x33 +2 x34 +4 x35 +8 x36 +16 x37 +32 x38 +64 x39 +128 x40 -1 x41 -2 x42 -4 x43 -8 x44 -16 x45 -32 x46 -64 x47 -128 x48 +77 x65 +16 x66 +29 x67 +77 x68 +86 x69 +46 x70 +3 x71 +11 x72 +72 x73 +62 x74 +49 x75 +70 x76 +50 x77 +14 x78 +97 x79 +73 x80 +29 x81 +38 x82 +16 x83 +34 x84 +89 x85 +86 x86 +23 x87 +87 x88 +27 x89 +41 x90 +55 x91 +76 x92 +94 x93 +89 x94 >= 808 ;
-1 x17 -2 x18 -4 x19 -8 x20 -16 x21 -32 x22 -64 x23 -128 x24 +1 x25 +2 x26 +4 x27 +8 x28 +16 x29 +32 x30 +64 x31 +128 x32 -30 x65 -57 x66 -70 x68 -17 x69 -74 x70 -73 x71 -74 x72 -58 x73 -86 x74 -46 x75 -36 x76 -13 x77 -27 x78 -23 x79 -14 x80 -89 x81 -91 x82 -5 x83 -50 x84 -18 x85 -37 x86 -98 x87 -40 x88 -66 x89 -15 x90 -49 x91 -34 x93 -20 x94 >= -655 ;
+1 x17 +2 x18 +4 x19 +8 x20 +16 x21 +32 x22 +64 x23 +128 x24 -1 x25 -2 x26 -4 x27 -8 x28 -16 x29 -32 x30 -64 x31 -128 x32 +30 x65 +57 x66 +70 x68 +17 x69 +74 x70 +73 x71 +74 x72 +58 x73 +86 x74 +46 x75 +36 x76 +13 x77 +27 x78 +23 x79 +14 x80 +89 x81 +91 x82 +5 x83 +50 x84 +18 x85 +37 x86 +98 x87 +40 x88 +66 x89 +15 x90 +49 x91 +34 x93 +20 x94 >= 655 ;
-1 x1 -2 x2 -4 x3 -8 x4 -16 x5 -32 x6 -64 x7 -128 x8 +1 x9 +2 x10 +4 x11 +8 x12 +16 x13 +32 x14 +64 x15 +128 x16 -86 x65 -23 x66 -88 x67 -8 x68 -22 x69 -51 x70 -57 x71 -84 x72 -60 x73 -20 x74 -25 x75 -27 x76 -80 x77 -87 x78 -49 x79 -62 x80 -15 x81 -91 x82 -9 x83 -27 x84 -31 x85 -96 x86 -70 x87 -77 x88 -65 x89 -56 x90 -82 x91 -18 x92 -71 x93 -24 x94 >= -780 ;
+1 x1 +2 x2 +4 x3 +8 x4 +16 x5 +32 x6 +64 x7 +128 x8 -1 x9 -2 x10 -4 x11 -8 x12 -16 x13 -32 x14 -64 x15 -128 x16 +86 x65 +23 x66 +88 x67 +8 x68 +22 x69 +51 x70 +57 x71 +84 x72 +60 x73 +20 x74 +25 x75 +27 x76 +80 x77 +87 x78 +49 x79 +62 x80 +15 x81 +91 x82 +9 x83 +27 x84 +31 x85 +96 x86 +70 x87 +77 x88 +65 x89 +56 x90 +82 x91 +18 x92 +71 x93 +24 x94 >= 780 ;
